p edge 67
e 0 7
e 0 35
e 0 40
e 0 43
e 0 46
e 1 14
e 1 15
e 1 18
e 1 58
e 1 65
e 2 24
e 2 43
e 2 51
e 2 52
e 2 61
e 3 5
e 3 33
e 3 52
e 3 61
e 4 10
e 4 29
e 5 27
e 5 33
e 5 39
e 6 8
e 6 17
e 6 41
e 6 45
e 6 51
e 6 60
e 7 10
e 7 19
e 7 46
e 8 24
e 8 28
e 8 41
e 8 51
e 9 12
e 9 14
e 9 21
e 9 48
e 9 56
e 9 64
e 10 29
e 10 30
e 10 35
e 11 22
e 11 55
e 11 60
e 12 48
e 12 64
e 13 16
e 13 17
e 13 66
e 14 15
e 14 21
e 14 56
e 14 58
e 15 21
e 15 65
e 16 17
e 16 37
e 16 45
e 16 66
e 17 45
e 17 49
e 17 51
e 18 55
e 18 58
e 18 59
e 18 62
e 18 63
e 18 65
e 19 22
e 19 36
e 19 46
e 19 54
e 20 27
e 20 33
e 20 34
e 20 47
e 21 48
e 22 28
e 22 36
e 22 50
e 22 54
e 22 55
e 22 59
e 22 60
e 23 31
e 23 37
e 23 56
e 23 58
e 24 28
e 24 43
e 24 51
e 24 54
e 25 38
e 25 65
e 26 38
e 26 50
e 26 62
e 26 63
e 27 33
e 27 34
e 27 39
e 28 41
e 28 54
e 28 60
e 29 30
e 29 57
e 30 35
e 30 42
e 30 47
e 30 57
e 31 37
e 31 56
e 31 64
e 31 66
e 32 33
e 32 40
e 32 42
e 32 44
e 32 47
e 33 44
e 33 47
e 33 61
e 34 47
e 34 53
e 35 40
e 35 42
e 36 50
e 37 45
e 37 58
e 37 60
e 37 66
e 38 62
e 38 65
e 40 42
e 40 43
e 40 44
e 41 60
e 42 47
e 43 44
e 43 46
e 43 54
e 43 61
e 44 61
e 46 54
e 47 53
e 47 57
e 49 51
e 49 52
e 50 59
e 50 63
e 51 52
e 52 61
e 53 57
e 55 58
e 55 59
e 55 60
e 56 58
e 56 64
e 58 60
e 59 63
e 62 63
e 62 65
c k 17
